SCIP Status        : solving was interrupted [time limit reached]
Total Time         :    3600.01
  solving          :    3600.00
  presolving       :       0.39 (included in solving)
  reading          :       0.01
  copying          :       2.72 (49 #copies) (minimal 0.00, maximal 0.19, average 0.06)
Original Problem   :
  Problem name     : bbbenchmark/pw05_100.2.cut
  Variables        : 101 (100 binary, 0 integer, 0 implicit integer, 1 continuous)
  Constraints      : 1 initial, 1 maximal
  Objective        : minimize, 1 non-zeros (abs.min = 1, abs.max = 1)
Presolved Problem  :
  Problem name     : t_bbbenchmark/pw05_100.2.cut
  Variables        : 1915 (100 binary, 0 integer, 1801 implicit integer, 14 continuous)
  Constraints      : 1841 initial, 11843 maximal
  Objective        : minimize, 1 non-zeros (abs.min = 1, abs.max = 1)
  Nonzeros         : 8731 constraint, 202 clique table
Presolvers         :   ExecTime  SetupTime  Calls  FixedVars   AggrVars   ChgTypes  ChgBounds   AddHoles    DelCons    AddCons   ChgSides   ChgCoefs
  boundshift       :       0.00       0.00      0          0          0          0          0          0          0          0          0          0
  convertinttobin  :       0.00       0.00      0          0          0          0          0          0          0          0          0          0
  domcol           :       0.00       0.00      1          0          0          0          0          0          0          0          0          0
  dualagg          :       0.00       0.00      0          0          0          0          0          0          0          0          0          0
  dualcomp         :       0.00       0.00      1          0          0          0          0          0          0          0          0          0
  dualinfer        :       0.00       0.00      0          0          0          0          0          0          0          0          0          0
  dualsparsify     :       0.00       0.00      1          0          0          0          0          0          0          0          0          0
  gateextraction   :       0.00       0.00      0          0          0          0          0          0          0          0          0          0
  implics          :       0.00       0.00      2          0          0          0          0          0          0          0          0          0
  inttobinary      :       0.00       0.00      0          0          0          0          0          0          0          0          0          0
  qpkktref         :       0.00       0.00      0          0          0          0          0          0          0          0          0          0
  redvub           :       0.00       0.00      0          0          0          0          0          0          0          0          0          0
  sparsify         :       0.00       0.00      1          0          0          0          0          0          0          0          0          0
  stuffing         :       0.00       0.00      0          0          0          0          0          0          0          0          0          0
  trivial          :       0.00       0.00      4          0          0          0          0          0          0          0          0          0
  tworowbnd        :       0.00       0.00      0          0          0          0          0          0          0          0          0          0
  dualfix          :       0.00       0.00      4          0          0          0          0          0          0          0          0          0
  genvbounds       :       0.00       0.00      0          0          0          0          0          0          0          0          0          0
  probing          :       0.25       0.00      1          0          0          0          0          0          0          0          0          0
  pseudoobj        :       0.00       0.00      1          0          0          0          1          0          0          0          0          0
  symmetry         :       0.00       0.00      0          0          0          0          0          0          0          0          0          0
  vbounds          :       0.00       0.00      1          0          0          0          0          0          0          0          0          0
  varbound         :       0.00       0.00      2          0          0          0          0          0          0          0          0          0
  and              :       0.01       0.00      2          0          0          0          0          0          0          0          0          0
  linear           :       0.00       0.00      2          0          0          0          0          0          0          0          0          0
  logicor          :       0.00       0.00      0          0          0          0          0          0          0          0          0          0
  bounddisjunction :       0.00       0.00      0          0          0          0          0          0          0          0          0          0
  nonlinear        :       0.11       0.01      5          0          0          0          1          0          0       1840          0          0
  benders          :       0.00       0.00      0          0          0          0          0          0          0          0          0          0
  components       :       0.01       0.00      1          0          0          0          0          0          0          0          0          0
  root node        :          -          -      -          0          -          -         16          -          -          -          -          -
Constraints        :     Number  MaxNumber  #Separate #Propagate    #EnfoLP    #EnfoRelax  #EnfoPS    #Check   #ResProp    Cutoffs    DomReds       Cuts    Applied      Conss   Children
  benderslp        :          0          0          0          0      69230          0          0       9436          0          0          0          0          0          0          0
  integral         :          0          0          0          0      69230          0          0       9436          0          0       1609          0          0        826     137304
  varbound         :         13         13         55     540485          0          0          0        105          0          0      40124          0          0          0          0
  and              :       1801       1801      90494     604581         12          0          0        105     572294         10     872822      13440      12337          0          0
  linear           :         27+        51         55     604603         12          0          0        103        237          2     214022          0          0          0          0
  logicor          :          0+      9964          0      98110          0          0          0          0        229        334         82          0          0          0          0
  bounddisjunction :          0+       195          0      27065          0          0          0          0          0         18          2          0          0          0          0
  benders          :          0          0          0          0         12          0          0         77          0          0          0          0          0          0          0
  countsols        :          0          0          0          0         12          0          0         77          0          0          0          0          0          0          0
  components       :          0          0          0          0          0          0          0          0          0          0          0          0          0          0          0
Constraint Timings :  TotalTime  SetupTime   Separate  Propagate     EnfoLP     EnfoPS     EnfoRelax   Check    ResProp    SB-Prop
  benderslp        :       0.08       0.00       0.00       0.00       0.06       0.00       0.00       0.02       0.00       0.00
  integral         :      49.14       0.00       0.00       0.00      49.12       0.00       0.00       0.02       0.00       0.00
  varbound         :       0.84       0.00       0.00       0.83       0.00       0.00       0.00       0.00       0.00       0.01
  and              :      92.28       0.00      61.12      30.00       0.00       0.00       0.00       0.02       0.44       0.70
  linear           :       3.15       0.00       0.06       3.04       0.00       0.00       0.00       0.00       0.00       0.05
  logicor          :      10.70       0.00       0.00      10.69       0.00       0.00       0.00       0.00       0.00       0.01
  bounddisjunction :       0.29       0.00       0.00       0.29       0.00       0.00       0.00       0.00       0.00       0.00
  benders          :       0.00       0.00       0.00       0.00       0.00       0.00       0.00       0.00       0.00       0.00
  countsols        :       0.00       0.00       0.00       0.00       0.00       0.00       0.00       0.00       0.00       0.00
  components       :       0.17       0.00       0.00       0.17       0.00       0.00       0.00       0.00       0.00       0.00
Propagators        : #Propagate   #ResProp    Cutoffs    DomReds
  dualfix          :          4          0          0          0
  genvbounds       :          0          0          0          0
  nlobbt           :          0          0          0          0
  obbt             :          0          0          0          0
  probing          :          0          0          0          0
  pseudoobj        :     303561          0          0         39
  redcost          :     171238          0          0      69304
  rootredcost      :         21          0          0          0
  symmetry         :          0          0          0          0
  vbounds          :      81036          0          0          0
Propagator Timings :  TotalTime  SetupTime   Presolve  Propagate    ResProp    SB-Prop
  dualfix          :       0.00       0.00       0.00       0.00       0.00       0.00
  genvbounds       :       0.42       0.00       0.00       0.42       0.00       0.00
  nlobbt           :       0.00       0.00       0.00       0.00       0.00       0.00
  obbt             :       0.00       0.00       0.00       0.00       0.00       0.00
  probing          :       0.25       0.00       0.25       0.00       0.00       0.00
  pseudoobj        :       0.77       0.00       0.00       0.77       0.00       0.00
  redcost          :      12.74       0.00       0.00      12.74       0.00       0.00
  rootredcost      :       0.60       0.00       0.00       0.60       0.00       0.00
  symmetry         :       0.36       0.00       0.00       0.36       0.00       0.00
  vbounds          :       0.57       0.00       0.00       0.56       0.00       0.01
Conflict Analysis  :       Time      Calls    Success    DomReds  Conflicts   Literals    Reconvs ReconvLits   Dualrays   Nonzeros   LP Iters   (pool size: [10000,10000])
  propagation      :       0.00        362        264          -        359       69.6          0        0.0          -          -          -
  infeasible LP    :       0.00          5          5          -        170      137.0          0        0.0         40      100.6          0
  bound exceed. LP :      28.36       6004       5718          -     163766      110.8          0        0.0          0        0.0      68612
  strong branching :       0.00          0          0          -          0        0.0          0        0.0          -          -          0
  pseudo solution  :       0.00          0          0          -          0        0.0          0        0.0          -          -          -
  applied globally :       1.00          -          -          0      34172      129.5          -          -         40          -          -
  applied locally  :          -          -          -          0          0        0.0          -          -          0          -          -
Separators         :   ExecTime  SetupTime      Calls  RootCalls    Cutoffs    DomReds  FoundCuts ViaPoolAdd  DirectAdd    Applied ViaPoolApp  DirectApp      Conss
  cut pool         :       9.11          -      27031         78          -          -      47162    2021651          -          -          -          -          -    (maximal pool size:       3607)
  aggregation      :      65.54       0.00       8743         55          0          0       1185       1373          0        380        380          0          0
  > cmir           :          -          -          -          -          -          -          -       1371          0        379        379          0          -
  > flowcover      :          -          -          -          -          -          -          -          2          0          1          1          0          -
  > knapsackcover  :          -          -          -          -          -          -          -          0          0          0          0          0          -
  cgmip            :       0.00       0.00          0          0          0          0          0          0          0          0          0          0          0
  clique           :       0.00       0.00         55         55          0          0          0          0          0          0          0          0          0
  closecuts        :       0.00       0.00          0          0          0          0          0          0          0          0          0          0          0
  convexproj       :       0.00       0.00          0          0          0          0          0          0          0          0          0          0          0
  disjunctive      :       0.00       0.00          0          0          0          0          0          0          0          0          0          0          0
  eccuts           :       0.00       0.00          0          0          0          0          0          0          0          0          0          0          0
  gauge            :       0.00       0.00          0          0          0          0          0          0          0          0          0          0          0
  gomory           :       0.00       0.00          0          0          0          0          0          0          0          0          0          0          0
  > gomorymi       :          -          -          -          -          -          -          -          0          0          0          0          0          -
  > strongcg       :          -          -          -          -          -          -          -          0          0          0          0          0          -
  impliedbounds    :       0.66       0.00       8743         55          0          0         56          4          0          2          2          0          0
  interlattice     :       0.23       0.00         30         30          0          0         30          0         30         28          0         28          0
  interminor       :       0.00       0.00          0          0          0          0          0          0          0          0          0          0          0
  intersub         :       0.00       0.00          0          0          0          0          0          0          0          0          0          0          0
  intobj           :       0.00       0.00          0          0          0          0          0          0          0          0          0          0          0
  mcf              :       0.01       0.00          1          1          0          0          0          0          0          0          0          0          0
  minor            :       0.05       0.00          0          0          0          0          0          0          0          0          0          0          0
  mixing           :       0.03       0.00       8743         55          0          0          0          0          0          0          0          0          0
  oddcycle         :       0.00       0.00          0          0          0          0          0          0          0          0          0          0          0
  rapidlearning    :       0.01       0.00          0          0          0          0          0          0          0          0          0          0          0
  rlt              :       0.00       0.00         10         10          0          0          0          0          0          0          0          0          0
  zerohalf         :      81.47       0.00       7812         20          0          0      45922    2020274          1     184619     184619          0          0
Cutselectors       :   ExecTime  SetupTime      Calls  RootCalls   Selected     Forced   Filtered  RootSelec   RootForc   RootFilt 
  hybrid           :       2.48       0.00      21045         53     197366          0    1837756        233          0         13
Pricers            :   ExecTime  SetupTime      Calls       Vars
  problem variables:       0.00          -          0          0
Branching Rules    :   ExecTime  SetupTime   BranchLP  BranchExt   BranchPS    Cutoffs    DomReds       Cuts      Conss   Children
  allfullstrong    :       0.00       0.00          0          0          0          0          0          0          0          0
  cloud            :       0.00       0.00          0          0          0          0          0          0          0          0
  distribution     :       0.00       0.00          0          0          0          0          0          0          0          0
  fullstrong       :       0.00       0.00          0          0          0          0          0          0          0          0
  inference        :       0.00       0.00          0          0          0          0          0          0          0          0
  leastinf         :       0.00       0.00          0          0          0          0          0          0          0          0
  lookahead        :       0.00       0.00          0          0          0          0          0          0          0          0
  mostinf          :       0.00       0.00          0          0          0          0          0          0          0          0
  multaggr         :       0.00       0.00          0          0          0          0          0          0          0          0
  nodereopt        :       0.00       0.00          0          0          0          0          0          0          0          0
  pscost           :       0.00       0.00          0          0          0          0          0          0          0          0
  random           :       0.00       0.00          0          0          0          0          0          0          0          0
  relpscost        :      48.75       0.00      69218          0          0          0       1609          0        855     137304
  vanillafullstrong:       0.00       0.00          0          0          0          0          0          0          0          0
Primal Heuristics  :   ExecTime  SetupTime      Calls      Found       Best
  LP solutions     :       0.05          -          -         12         12
  relax solutions  :       0.00          -          -          0          0
  pseudo solutions :       0.00          -          -          0          0
  strong branching :       0.03          -          -          0          0
  actconsdiving    :       0.00       0.00          0          0          0
  adaptivediving   :       4.69       0.00         29          0          0
  alns             :       7.38       0.00         23         10         10
  bound            :       0.00       0.00          0          0          0
  clique           :       0.00       0.00          1          0          0
  coefdiving       :       0.00       0.00          0          0          0
  completesol      :       0.00       0.00          0          0          0
  conflictdiving   :      96.99       0.00        671          0          0
  crossover        :       3.56       0.00          7          1          1
  dins             :       0.00       0.00          0          0          0
  distributiondivin:      81.34       0.00        354          0          0
  dps              :       0.00       0.00          0          0          0
  dualval          :       0.00       0.00          0          0          0
  farkasdiving     :       0.01       0.00          0          0          0
  feaspump         :       0.14       0.00          1          1          1
  fixandinfer      :       0.00       0.00          0          0          0
  fracdiving       :      70.15       0.00        412          0          0
  gins             :       0.09       0.00          0          0          0
  guideddiving     :      66.60       0.00        434          0          0
  indicator        :       0.11       0.00          0          0          0
  indicatordiving  :       0.00       0.00          0          0          0
  intdiving        :       0.00       0.00          0          0          0
  intshifting      :       0.63       0.00         62          0          0
  linesearchdiving :      64.43       0.00        462          0          0
  localbranching   :       0.00       0.00          0          0          0
  locks            :       0.01       0.00          1          0          0
  lpface           :       0.08       0.00          0          0          0
  mpec             :     121.71       0.00         11          1          1
  multistart       :       0.00       0.00          0          0          0
  mutation         :       0.00       0.00          0          0          0
  nlpdiving        :      22.27       0.00          3          0          0
  objpscostdiving  :     126.89       0.00         88         44          0
  octane           :       0.00       0.00          0          0          0
  ofins            :       0.12       0.00          0          0          0
  oneopt           :       0.09       0.00         29          0          0
  padm             :       0.00       0.00          0          0          0
  proximity        :       0.00       0.00          0          0          0
  pscostdiving     :      64.65       0.00        362          1          1
  randrounding     :       0.59       0.00       9355          0          0
  rens             :       0.00       0.00          0          0          0
  reoptsols        :       0.00       0.00          0          0          0
  repair           :       0.00       0.00          0          0          0
  rins             :       3.65       0.00         19          0          0
  rootsoldiving    :      70.72       0.00         42          6          0
  rounding         :       1.47       0.00       4055          0          0
  shiftandpropagate:       0.00       0.00          0          0          0
  shifting         :      66.40       0.00      12562          7          6
  simplerounding   :       0.13       0.00          0          0          0
  subnlp           :     144.04       0.00          0          0          0
  trivial          :       0.00       0.00          2          2          2
  trivialnegation  :       0.00       0.00          0          0          0
  trustregion      :       0.00       0.00          0          0          0
  trysol           :       0.09       0.00          0          0          0
  twoopt           :       0.00       0.00          0          0          0
  undercover       :       1.08       0.00          1          1          1
  vbounds          :       0.00       0.00          0          0          0
  veclendiving     :      64.94       0.00        487          0          0
  zeroobj          :       0.00       0.00          0          0          0
  zirounding       :       0.55       0.00       1000          0          0
  other solutions  :          -          -          -          0          -
Diving (single)    :      Calls      Nodes   LP Iters Backtracks  Conflicts   MinDepth   MaxDepth   AvgDepth  RoundSols  NLeafSols  MinSolDpt  MaxSolDpt  AvgSolDpt
  actconsdiving    :          0          -          -          -          -          -          -          -          -          -          -          -          -
  coefdiving       :          0          -          -          -          -          -          -          -          -          -          -          -          -
  conflictdiving   :        671      28199     707281        685      48219         53         82       63.1          0          -          -          -          -
  distributiondivin:        354      12478     512263        386      12792         46         66       55.2          0          -          -          -          -
  farkasdiving     :          0          -          -          -          -          -          -          -          -          -          -          -          -
  fracdiving       :        412      66089     511606        118       2206         55        703      181.0          0          -          -          -          -
  guideddiving     :        434      55321     506888        138       5608         55        362      148.9          0          -          -          -          -
  indicatordiving  :          0          -          -          -          -          -          -          -          -          -          -          -          -
  linesearchdiving :        462      18302     505419        489      29706         47         87       59.9          0          -          -          -          -
  pscostdiving     :        362      16683     525855        380      16217         54         81       65.8          0          1         81         81       81.0
  veclendiving     :        487      20675     504657        489      38190         52         88       62.9          0          -          -          -          -
Diving (adaptive)  :      Calls      Nodes   LP Iters Backtracks  Conflicts   MinDepth   MaxDepth   AvgDepth  RoundSols  NLeafSols  MinSolDpt  MaxSolDpt  AvgSolDpt
  actconsdiving    :          5        198       7319          3        110         54         58       55.8          0          -          -          -          -
  coefdiving       :          7        275       7822          6        485         49         77       59.6          0          -          -          -          -
  conflictdiving   :          0          -          -          -          -          -          -          -          -          -          -          -          -
  distributiondivin:          0          -          -          -          -          -          -          -          -          -          -          -          -
  farkasdiving     :          0          -          -          -          -          -          -          -          -          -          -          -          -
  fracdiving       :          6        979       7564          1         21         96        233      177.8          0          -          -          -          -
  guideddiving     :          2        302       2437          0          0        136        203      169.5          0          -          -          -          -
  indicatordiving  :          0          -          -          -          -          -          -          -          -          -          -          -          -
  linesearchdiving :          3        117       3107          3        207         56         60       57.7          0          -          -          -          -
  pscostdiving     :          2         95       2906          2         64         64         71       67.5          0          -          -          -          -
  veclendiving     :          4        167       4355          4        310         58         61       59.2          0          -          -          -          -
Neighborhoods      :      Calls  SetupTime  SolveTime SolveNodes       Sols       Best       Exp3  EpsGreedy        UCB TgtFixRate  Opt  Inf Node Stal  Sol  Usr Othr Actv
  rens             :          1       0.00       0.00          0          0          0    0.00000   -1.00000    0.07131      0.900    0    0    0    0    0    0    1    1
  rins             :          2       0.09       0.10         58          0          0    0.00000   -1.00000    0.47358      0.850    0    1    0    1    0    0    0    1
  mutation         :          5       0.37       3.53       2325          6          6    0.00000   -1.00000    0.49263      0.585    2    0    0    2    1    0    0    1
  localbranching   :          2       0.17       0.10         78          0          0    0.00000   -1.00000    0.47085      0.850    0    1    0    1    0    0    0    1
  crossover        :          3       0.38       0.50        253          3          3    0.00000   -1.00000    0.42186      0.662    0    1    0    1    1    0    0    1
  proximity        :          2       0.19       0.21         88          0          0    0.00000   -1.00000    0.46791      0.850    0    1    0    1    0    0    0    1
  zeroobjective    :          2       0.16       0.07         74          0          0    0.00000   -1.00000    0.47079      0.850    0    1    0    1    0    0    0    1
  dins             :          6       0.83       0.38        347          1          1    0.00000   -1.00000    0.51867      0.881    0    2    0    4    0    0    0    1
  trustregion      :          0       0.00       0.00          0          0          0    0.00000   -1.00000    1.00000      0.900    0    0    0    0    0    0    0    0
Expressions        :   #IntEval  IntEvalTi   #RevProp  RevPropTi    DomReds    Cutoffs  #Estimate  EstimTime  Branching  #Simplify SimplifyTi Simplified
  pow              :          0       0.00          0       0.00          0          0          0       0.00          0          0       0.00          0
  prod             :       9900       0.00          0       0.00          0          0          0       0.00          0       6751       0.01          0
  sum              :          8       0.00          2       0.00          0          0          0       0.00          0          3       0.02          2
  var              :       6554       0.00          0       0.00          0          0          0       0.00          0      15619       0.00          0
  varidx           :          0       0.00          0       0.00          0          0          0       0.00          0          0       0.00          0
LP                 :       Time      Calls Iterations  Iter/call   Iter/sec  Time-0-It Calls-0-It    ItLimit
  primal LP        :     113.76      11317          0       0.00       0.00     113.70      11317
  dual LP          :    1927.59     141412    9927066      76.56    5149.99       5.75      11741
  lex dual LP      :       0.00          0          0       0.00          -
  barrier LP       :       0.00          0          0       0.00          -       0.00          0
  resolve instable :       0.00          0          0       0.00          -
  diving/probing LP:     607.26      18519    4704794     254.05    7747.58
  strong branching :      20.58       2074     168455      81.22    8185.37          -          -        238
    (at root node) :          -         20       3283     164.15          -
  conflict analysis:      11.61       6948      68612       9.88    5909.73
NLP relaxation     :
  solve time       :      21.70 (7 calls)
  convexity        :  nonconvex (40 linear rows, 0 convex ineq., 0 nonconvex ineq., 1801 nonlinear eq. or two-sided ineq.)
NLP Solvers        :  #Problems  ProblemTi    #Solves  SolveTime      #Iter  Time/Iter      #Okay #TimeLimit #IterLimit #LObjLimit #Interrupt  #NumError #EvalError  #OutOfMem #LicenseEr #OtherTerm   #GlobOpt    #LocOpt  #Feasible #LocInfeas #GlobInfea #Unbounded   #Unknown
  ipopt            :         12       6.59         31     147.69       1685       0.09         30          0          1          0          0          0          0          0          0          0          0         14          0         14          0          0          3
B&B Tree           :
  number of runs   :          1
  nodes            :     108117 (68652 internal, 39465 leaves)
  feasible leaves  :         12
  infeas. leaves   :         29
  objective leaves :      39424
  nodes (total)    :     108117 (68652 internal, 39465 leaves)
  nodes left       :      28892
  max depth        :         65
  max depth (total):         65
  backtracks       :      24397 (22.6%)
  early backtracks :          0 (0.0%)
  nodes exc. ref.  :          0 (0.0%)
  delayed cutoffs  :          5
  repropagations   :        120 (600 domain reductions, 0 cutoffs)
  avg switch length:       6.03
  switching time   :     145.86
Estim. Tree Size   :     216824
Estimation Tree    : 137305 nodes (108412 visited, 68652 internal, 39760 leaves, 28893 open), weight: 0.0000 completed 0.0967
Estimations        :      estim      value      trend resolution     smooth
  wbe              : 54102000157187          -          -          -          -
  tree-profile     :         -1          -          -          -          -
  gap              :     782662    0.68858    0.00006         64     750406
  tree-weight      :     216824    0.00000    0.00000         64     216622
  leaf-frequency   :    2488132    0.36674    0.00001         64    1925527
  ssg              :    7286089    0.84729   -0.00002         64    7120881
  open-nodes       :     216824 28893.00000   24.58542         64     216622
Root Node          :
  First LP value   : -5.45898989898991e+00
  First LP Iters   :       1707 (17070.00 Iter/sec)
  First LP Time    :       0.10
  Final Dual Bound : -5.23074074074075e+00
  Final Root Iters :       2475
  Root LP Estimate : -1.83707309329173e+00
Solution           :
  Solutions found  :         86 (35 improvements)
  First Solution   : +1.00000000000000e+05   (in run 1, after 0 nodes, 0.03 seconds, depth 0, found by <trivial>)
  Gap First Sol.   :   infinite
  Gap Last Sol.    :      45.26 %
  Primal Bound     : -3.13535353535354e+00   (in run 1, after 106679 nodes, 3520.15 seconds, depth 41, found by <relaxation>)
  Dual Bound       : -4.55337251697349e+00
  Gap              :      45.23 %
Integrals          :      Total       Avg%
  primal-dual      :  121257.01      33.68
  primal-ref       :          -          - (not evaluated)
  dual-ref         :          -          - (not evaluated)
